50
    70    69    65     1    49     3    22    72    33    23    84    19    83    49    45    59    48    22    36    76    70    95    31    20    78    38    45     6    97    35    32    14    37    88    87    90     3    13    48    46    87    43    89    59    75    25    29    74    42    22
     5    10    10     1    10     6     4     6     9    10     5     1     8     2     7     4     2     8    10     4     9     6     2     8     8    10     7     4     3     9     9     9     6     7     4     1     7     1     3     6     1     5     5    10     2     5     4     9     1     5
  1334  1882  3102  2971  2034  2051  1067  2979  2590  2341   833  2227  2329   835  3049  1079  1256  2834  1587  1881  1346  2743  2571  2465  1731  1420  3054  3104  2449  2738  2711  2462  2068  1584  2083  2102  1437  2432  2039  2435  1314  2453  2021  2340  1218  2750  1952  2448  1955  1246
